w = 15;
h = 15;
n = 10;
m = 19;
rect_size = [|
3, 3|
3, 4|
4, 3|
3, 5|
5, 3|
3, 6|
6, 3|
3, 7|
7, 3|
3, 8|
8, 3|
3, 9|
9, 3|
3, 12|
12, 3|
3, 15|
15, 3|
6, 3|
3, 6|];
rect_offset = [|
0, 0|
0, 0|
0, 0|
0, 0|
0, 0|
0, 0|
0, 0|
0, 0|
0, 0|
0, 0|
0, 0|
0, 0|
0, 0|
0, 0|
0, 0|
0, 0|
0, 0|
0, 0|
0, 0|];
shape = [{1}, {2}, {3}, {4}, {5}, {6}, {7}, {8}, {9}, {10}, {11}, {12}, {13}, {14}, {15}, {16}, {17}, {18}, {19}];
shapeind = [{1}, {2, 3}, {4, 5}, {6, 7}, {8, 9}, {10, 11}, {12, 13}, {14, 15}, {16, 17}, {18, 19}];
ncopy = [1, 1, 1, 1, 1, 1, 1, 1, 1, 1];
c = 10;
